single_objective/SL-DABL/OP/problems/op/OPLib-master/instances/gen1/gr202-gen1-50.oplib
NAME: gr202
TYPE: OP
COMMENT: Europe-Subproblem of 666-city OP (Groetschel)
DIMENSION: 202
COST_LIMIT : 20080
EDGE_WEIGHT_TYPE: GEO
DISPLAY_DATA_TYPE: COORD_DISPLAY
NODE_COORD_SECTION
1 37.44 -25.40
2 38.43 -9.08
3 41.11 -8.36
4 37.23 -5.59
5 36.32 -6.18
6 36.43 -4.25
7 37.13 -3.41
8 37.53 -4.46
9 38.21 -0.29
10 39.28 -0.22
11 41.23 2.11
12 41.38 -0.53
13 40.24 -3.41
14 41.39 -4.43
15 43.15 -2.58
16 43.22 -8.23
17 38.54 1.26
18 39.34 2.39
19 42.30 1.31
20 44.50 -0.34
21 43.36 1.26
22 43.18 5.24
23 43.42 7.15
24 43.42 7.23
25 42.42 9.27
26 45.50 1.16
27 45.26 4.24
28 45.45 4.51
29 45.10 5.43
30 48.24 -4.29
31 48.05 -1.41
32 47.13 -1.33
33 47.23 0.41
34 49.30 0.08
35 48.52 2.20
36 49.15 4.02
37 47.19 5.01
38 48.41 6.12
39 48.35 7.45
40 49.36 6.09
41 50.38 5.34
42 50.50 4.20
43 50.38 3.04
44 51.03 3.43
45 51.13 4.25
46 51.26 5.28
47 51.55 4.28
48 52.22 4.54
49 52.05 5.08
50 53.13 6.33
51 50.23 -4.10
52 50.43 -1.54
53 50.50 -0.08
54 51.29 -3.13
55 51.27 -2.35
56 51.30 -0.10
57 52.30 -1.50
58 53.25 -2.55
59 53.30 -2.15
60 53.23 -1.30
61 53.50 -1.35
62 54.59 -1.35
63 55.57 -3.13
64 55.53 -4.15
65 56.28 -3.00
66 57.10 -2.04
67 60.09 -1.09
68 62.01 -6.46
69 51.54 -8.28
70 52.40 -8.38
71 53.20 -6.15
72 54.35 -5.55
73 55.00 -7.19
74 64.09 -21.51
75 64.11 -51.44
76 76.34 -68.47
77 70.40 23.42
78 68.26 17.25
79 65.01 25.28
80 61.30 23.45
81 60.27 22.17
82 60.10 24.58
83 63.25 10.25
84 60.23 5.20
85 58.58 5.45
86 59.55 10.45
87 57.43 11.58
88 55.36 13.00
89 58.25 15.37
90 59.20 18.03
91 57.38 18.18
92 56.09 10.13
93 55.24 10.23
94 55.40 12.35
95 53.04 8.49
96 53.33 9.59
97 54.20 10.08
98 54.05 12.07
99 51.57 7.37
100 52.24 9.44
101 52.07 11.38
102 52.31 13.24
103 50.47 6.05
104 50.44 7.05
105 50.56 6.59
106 51.12 6.47
107 51.17 7.17
108 51.28 7.01
109 51.28 7.13
110 51.32 7.13
111 51.31 7.28
112 51.19 9.29
113 50.58 11.01
114 51.29 11.58
115 51.19 12.20
116 50.50 12.55
117 51.03 13.44
118 49.14 6.59
119 50.07 8.40
120 49.25 8.43
121 49.48 9.56
122 49.27 11.04
123 49.03 8.24
124 48.46 9.11
125 49.01 12.06
126 48.08 11.34
127 46.12 6.09
128 46.31 6.38
129 46.57 7.26
130 47.33 7.35
131 47.23 8.32
132 47.16 11.24
133 47.48 13.02
134 48.18 14.18
135 48.13 16.20
136 47.05 15.27
137 45.03 7.40
138 45.28 9.12
139 45.27 11.00
140 45.27 12.21
141 45.40 13.46
142 44.25 8.57
143 44.29 11.20
144 43.46 11.15
145 43.55 12.28
146 39.20 9.00
147 41.54 12.29
148 40.51 14.17
149 41.27 15.34
150 41.07 16.52
151 40.28 17.15
152 38.11 15.33
153 37.30 15.06
154 38.07 13.21
155 35.54 14.31
156 53.24 14.32
157 54.23 18.40
158 53.08 18.00
159 52.25 16.55
160 51.46 19.30
161 52.15 21.00
162 53.09 23.09
163 51.06 17.00
164 50.16 19.00
165 50.03 19.58
166 51.15 22.35
167 49.45 13.23
168 50.05 14.26
169 49.50 18.17
170 49.12 16.37
171 48.09 17.07
172 48.43 21.15
173 47.30 19.05
174 47.32 21.38
175 46.05 18.13
176 46.15 20.09
177 45.45 21.13
178 46.47 23.36
179 47.10 27.35
180 45.48 24.09
181 45.39 25.37
182 44.26 26.06
183 44.11 28.39
184 46.03 14.31
185 45.20 14.27
186 45.48 15.58
187 43.31 16.27
188 43.52 18.25
189 44.50 20.30
190 42.38 18.07
191 41.59 21.26
192 41.20 19.50
193 42.41 23.19
194 42.09 24.45
195 43.13 27.55
196 42.30 27.28
197 39.36 19.56
198 40.38 22.56
199 38.15 21.44
200 37.58 23.43
201 35.20 25.09
202 35.10 33.22
NODE_SCORE_SECTION
1 1
2 1
3 1
4 1
5 1
6 1
7 1
8 1
9 1
10 1
11 1
12 1
13 1
14 1
15 1
16 1
17 1
18 1
19 1
20 1
21 1
22 1
23 1
24 1
25 1
26 1
27 1
28 1
29 1
30 1
31 1
32 1
33 1
34 1
35 1
36 1
37 1
38 1
39 1
40 1
41 1
42 1
43 1
44 1
45 1
46 1
47 1
48 1
49 1
50 1
51 1
52 1
53 1
54 1
55 1
56 1
57 1
58 1
59 1
60 1
61 1
62 1
63 1
64 1
65 1
66 1
67 1
68 1
69 1
70 1
71 1
72 1
73 1
74 1
75 1
76 1
77 1
78 1
79 1
80 1
81 1
82 1
83 1
84 1
85 1
86 1
87 1
88 1
89 1
90 1
91 1
92 1
93 1
94 1
95 1
96 1
97 1
98 1
99 1
100 1
101 1
102 1
103 1
104 1
105 1
106 1
107 1
108 1
109 1
110 1
111 1
112 1
113 1
114 1
115 1
116 1
117 1
118 1
119 1
120 1
121 1
122 1
123 1
124 1
125 1
126 1
127 1
128 1
129 1
130 1
131 1
132 1
133 1
134 1
135 1
136 1
137 1
138 1
139 1
140 1
141 1
142 1
143 1
144 1
145 1
146 1
147 1
148 1
149 1
150 1
151 1
152 1
153 1
154 1
155 1
156 1
157 1
158 1
159 1
160 1
161 1
162 1
163 1
164 1
165 1
166 1
167 1
168 1
169 1
170 1
171 1
172 1
173 1
174 1
175 1
176 1
177 1
178 1
179 1
180 1
181 1
182 1
183 1
184 1
185 1
186 1
187 1
188 1
189 1
190 1
191 1
192 1
193 1
194 1
195 1
196 1
197 1
198 1
199 1
200 1
201 1
202 1
DEPOT_SECTION
1
-1
EOF
