single_objective/SL-DABL/OP/problems/op/OPLib-master/solutions/ea4op/gen1/gr202-gen1-50.sol
NAME : gr202
TYPE : OP
DIMENSION : 202
COST_LIMIT : 20080
ROUTE_NODES : 145
ROUTE_SCORE : 145
ROUTE_COST : 19988
NODE_SEQUENCE_SECTION
1
69
70
71
72
73
64
65
63
62
61
60
59
58
57
54
55
52
56
53
34
31
32
33
35
36
43
44
42
45
47
48
49
46
41
103
104
105
106
107
108
109
110
111
99
112
100
95
96
97
93
92
94
88
98
156
102
101
114
115
116
117
167
168
163
159
158
160
165
164
169
170
135
171
173
176
177
178
180
181
182
183
195
196
194
193
191
192
151
150
149
148
147
145
144
143
139
140
141
185
184
186
136
134
133
132
126
125
122
121
119
120
124
123
39
118
40
38
130
131
129
128
127
28
27
29
137
138
142
24
23
22
21
19
11
18
17
10
9
7
6
8
4
5
2
-1
DEPOT_SECTION
1
-1
EOF
